c Choco e747e1e
o 182 0.0
s OPTIMUM FOUND
v <instantiation id='sol1' type='solution' cost='182' ><list>E_fq[0] E_fq[1] E_fq[2] R_fq[0] R_fq[1] R_fq[2] aux_gb[0] aux_gb[1] </list><values>14 196 56 154 56 196 196 14 </values></instantiation>
d FOUND SOLUTIONS 1

